(declare-datatypes ((Unit 0)) (((unit))))
(declare-datatypes ((Bits 0)) (((Bits (len (_ BitVec 8)) (contents (_ BitVec 64))))))
(declare-datatypes ((Zfloat_bits 0)) (((Zfloat_bits (Zfloat_bits_zexp Bits) (Zfloat_bits_zmantissa Bits) (Zfloat_bits_zsign (_ BitVec 1))))))
(declare-datatypes ((Zexception 0)) (((z__dummy_exnz3 (unz__dummy_exnz3 Unit)))))
(declare-const zz4576/1 (_ BitVec 8))
(declare-const zz4577/1 (_ BitVec 8))
(declare-const zz4578/1 (_ BitVec 8))
(declare-const zz4579/1 (_ BitVec 8))
(define-const zz4580/2 (_ BitVec 8) zz4576/1)
(define-const zz4582/2 (_ BitVec 8) zz4577/1)
(define-const zz4584/2 (_ BitVec 8) zz4578/1)
(define-const zz4586/2 (_ BitVec 8) zz4579/1)
(define-const zz4603/2 (_ BitVec 8) (bvsub (bvadd zz4580/2 zz4582/2) zz4584/2))
(define-const zz4605/2 (_ BitVec 8) (bvsub (bvadd zz4584/2 zz4586/2) zz4584/2))
(define-const zz4607/2 (_ BitVec 8) (bvsub zz4580/2 zz4584/2))
(define-const zz4619/2 (_ BitVec 8) (bvsub (bvadd zz4584/2 zz4586/2) zz4580/2))
(define-const zz4621/2 (_ BitVec 8) (bvsub (bvadd zz4580/2 zz4582/2) zz4580/2))
(define-const zz4623/2 (_ BitVec 8) (bvsub zz4584/2 zz4580/2))
(assert (and (bvsle (concat #x00000000000000 zz4607/2) (concat #x00000000000000 zz4605/2)) (bvsle (concat #x00000000000000 zz4603/2) (concat #x00000000000000 zz4605/2)) (bvsle (concat #x00000000000000 zz4607/2) (concat #x00000000000000 zz4603/2)) (bvsle (concat #x00000000000000 zz4623/2) (concat #x00000000000000 zz4621/2)) (bvsle (concat #x00000000000000 zz4619/2) (concat #x00000000000000 zz4621/2)) (bvsle (concat #x00000000000000 zz4623/2) (concat #x00000000000000 zz4619/2)) (or (not (= zz4580/2 zz4584/2)) (not (= zz4582/2 zz4586/2)))))
(check-sat)
